CPXPARAM_Emphasis_MIP#P8#1#3.816936#0.719357
CPXPARAM_Emphasis_MIP#P8#5#4.876600#0.919067
CPXPARAM_MIP_Strategy_VariableSelect#P46#0#4.637388#0.873984
CPXPARAM_MIP_Strategy_VariableSelect#P46#1#4.129841#0.778329
CPXPARAM_MIP_Strategy_VariableSelect#P46#2#5.306036#1.000000
CPXPARAM_MIP_Strategy_VariableSelect#P46#3#1.659427#0.312743
